p wcnf 1000 200 2
1 1 0
1 2 0
1 3 0
1 4 0
1 5 0
1 6 0
1 7 0
1 8 0
1 9 0
1 10 0
1 11 0
2 12 0
1 2 2 2 2 2 2 3 3 3 3 3 0
1 4 4 4 4 4 4 4 4 4 4 5 0
1 5 5 5 5 6 6 6 6 6 6 6 0
1 7 7 7 7 7 7 7 7 7 7 7 0
1 7 8 8 8 8 8 8 8 8 9 9 0
1 9 9 9 9 9 9 9 9 10 10 10 0
1 10 10 10 10 10 10 10 10 10 10 10 0
1 10 10 10 11 11 11 11 11 11 11 11 0
1 12 12 12 12 12 12 12 12 12 12 13 0
1 13 13 13 13 13 13 13 13 14 14 14 0
1 14 14 14 14 14 14 15 15 15 15 15 0
1 15 15 15 15 15 16 16 16 16 16 16 0
1 16 16 16 16 17 17 17 17 17 17 17 0
1 17 17 18 18 18 18 18 18 18 18 18 0
1 19 19 19 19 19 19 19 19 19 19 20 0
1 20 20 20 20 20 20 21 21 21 21 21 0
1 21 21 21 21 22 22 22 22 22 22 22 0
1 23 23 23 23 23 23 23 23 23 23 24 0
1 24 24 24 24 25 25 25 25 25 25 25 0
1 26 26 26 26 26 26 26 26 26 26 26 0
1 27 27 27 27 27 27 28 28 28 28 28 0
1 28 28 29 29 29 29 29 29 29 29 29 0
1 29 29 29 30 30 30 30 30 30 30 31 0
1 31 31 31 31 31 31 32 32 32 32 32 0
1 32 32 32 32 32 33 33 33 33 33 33 0
1 33 33 33 33 33 34 34 34 34 34 34 0
1 34 34 34 34 34 35 35 35 35 35 35 0
1 35 35 35 35 36 36 36 36 36 36 36 0
1 36 37 37 37 37 37 37 37 38 38 38 0
1 38 38 39 39 39 39 39 39 39 39 39 0
1 39 39 40 40 40 40 40 40 40 41 41 0
1 41 42 42 42 42 42 42 42 42 42 42 0
1 42 42 43 43 43 43 43 43 44 44 44 0
1 44 44 44 44 44 44 45 45 45 45 45 0
1 45 45 45 45 45 45 46 46 46 46 46 0
1 46 46 46 46 46 46 47 47 47 47 47 0
1 47 47 47 47 47 47 47 47 47 48 48 0
1 48 48 48 48 48 48 48 48 49 49 49 0
1 49 49 49 49 49 49 49 50 50 50 50 0
1 50 50 50 50 50 50 50 50 51 51 51 0
1 51 51 51 51 51 51 51 52 52 52 52 0
1 53 53 53 53 53 53 53 53 54 54 54 0
1 54 54 54 54 55 55 55 55 55 55 55 0
1 55 55 56 56 56 56 56 56 56 56 57 0
1 57 57 57 57 57 58 58 58 58 58 58 0
1 58 58 59 59 59 59 59 59 59 59 59 0
1 59 59 59 59 59 60 60 60 60 60 60 0
1 60 60 60 60 60 60 60 60 60 60 60 0
1 61 61 61 61 61 61 61 61 61 61 61 0
1 62 62 62 62 62 62 62 62 62 62 62 0
1 63 63 63 63 63 63 63 63 64 64 64 0
1 64 64 64 64 64 64 64 65 65 65 65 0
1 65 65 65 65 65 65 65 65 65 66 66 0
1 66 66 66 66 66 66 66 66 66 67 67 0
1 67 67 67 67 67 67 67 67 67 68 68 0
1 68 68 68 68 68 68 68 69 69 69 69 0
1 69 69 69 69 69 69 69 70 70 70 70 0
1 70 70 71 71 71 71 71 71 71 71 72 0
1 72 72 72 72 72 72 72 72 72 73 73 0
1 73 73 73 73 73 73 73 73 74 74 74 0
1 74 75 75 75 75 75 75 75 75 76 76 0
1 76 76 76 77 77 77 77 77 77 77 77 0
1 77 77 78 78 78 78 78 78 78 78 79 0
1 79 79 79 79 79 79 79 79 80 80 80 0
1 80 80 80 80 80 80 80 80 80 80 81 0
1 81 81 81 81 81 81 81 81 81 81 82 0
1 82 82 82 82 82 82 82 82 82 82 82 0
1 83 83 83 83 83 83 83 83 83 83 83 0
1 83 84 84 84 84 84 84 84 84 84 84 0
1 84 84 85 85 85 85 85 86 86 86 86 0
1 86 86 86 86 86 86 87 87 87 87 87 0
1 87 87 87 87 87 88 88 88 88 88 88 0
1 88 88 88 88 89 89 89 89 89 89 89 0
1 89 89 90 90 90 90 90 90 90 90 90 0
1 90 90 91 91 91 91 91 91 91 91 91 0
1 92 92 92 92 92 92 92 92 92 93 93 0
1 93 93 93 94 94 94 94 94 94 94 94 0
1 94 94 95 95 95 95 95 95 95 95 96 0
1 96 96 96 96 96 96 96 96 97 97 97 0
1 97 97 97 97 97 97 97 98 98 98 98 0
1 98 98 98 98 99 99 99 99 99 99 99 0
1 99 99 99 99 99 100 100 100 100 100 100 0
1 100 100 100 0
1  0
1 95 98 216 222 287 307 350 417 430 467 590 0
1 647 747 769 818 872 998 0
1  0
1 49 110 168 226 296 328 400 403 509 672 721 0
1 849 872 0
1  0
1 21 68 101 130 153 175 258 412 413 533 560 0
1 731 768 831 850 856 861 865 888 899 904 930 0
1  0
1 382 431 629 634 778 806 813 849 904 978 0
1  0
1 204 214 261 278 311 315 440 557 564 663 711 0
1 780 784 826 844 900 911 928 0
1  0
1 121 200 222 224 296 418 449 501 689 706 798 0
1 836 879 907 972 0
1  0
1 51 89 160 197 209 213 255 367 370 380 421 0
1 458 669 708 719 756 767 986 0
1  0
1 21 140 152 164 186 227 242 299 338 417 436 0
1 616 682 744 786 831 914 978 981 996 0
1  0
1 32 105 113 132 143 170 202 210 271 298 303 0
1 368 406 438 446 467 541 626 726 763 857 874 0
1 953 958 0
1  0
1 88 125 187 261 351 358 432 441 472 473 532 0
1 749 781 826 917 923 929 937 949 962 0
1  0
1 42 154 210 212 230 234 276 336 369 383 432 0
1 549 652 768 776 792 829 843 915 925 979 0
1  0
1 43 52 77 137 209 256 278 326 369 431 451 0
1 524 566 572 604 659 674 675 694 764 771 774 0
1 959 0
1  0
1 82 173 211 244 268 359 376 383 433 459 624 0
1 637 704 720 737 778 793 882 884 927 943 955 0
1  0
1  0
1 65 173 198 326 364 408 486 503 553 557 915 0
1 965 0
1  0
1 5 52 122 218 234 248 257 336 391 420 440 0
1 596 671 716 718 720 850 893 900 0
1  0
1 66 112 162 225 273 282 296 300 334 483 726 0
1 779 811 827 871 886 919 0
1  0
1 74 205 210 334 336 391 392 428 429 484 502 0
1 647 703 796 806 851 870 945 0
1  0
1 29 102 158 203 296 300 308 364 377 388 407 0
1 522 537 658 721 769 810 857 914 936 948 983 0
1  0
1 183 212 253 362 396 465 548 623 626 688 710 0
1 960 964 989 990 991 994 0
1  0
1 284 322 354 367 419 447 466 609 622 654 723 0
1 785 852 0
1  0
1 73 80 103 143 151 341 430 466 479 525 547 0
1 555 563 565 622 648 760 784 0
1  0
1 9 79 111 133 155 187 231 267 277 319 449 0
1 482 501 502 558 563 660 727 745 943 963 978 0
1  0
1 26 38 131 173 223 267 342 349 367 394 516 0
1 731 774 818 821 846 897 0
1  0
1 71 74 102 163 186 202 292 343 353 366 392 0
1 558 559 568 597 671 714 760 765 768 868 898 0
1 970 0
1  0
1 63 71 191 238 262 400 401 409 416 456 472 0
1 529 583 604 620 656 702 762 871 973 0
1  0
1 162 282 288 341 416 537 559 560 580 661 720 0
1 801 813 832 940 981 0
1  0
1 63 72 104 106 122 140 144 153 347 477 494 0
1 527 534 554 557 559 591 645 647 667 672 736 0
1 749 765 795 818 824 832 921 952 0
1  0
1 90 138 196 321 333 436 457 540 604 635 694 0
1 702 883 884 912 923 0
1  0
1 83 121 136 233 242 264 313 396 428 441 448 0
1 590 655 681 703 802 844 899 0
1  0
1 51 116 163 200 203 218 286 343 345 528 561 0
1 805 819 837 930 0
1  0
1 52 142 165 181 208 211 274 312 321 362 422 0
1 466 518 523 548 580 657 662 738 816 821 877 0
1 938 0
1  0
1 24 82 146 298 337 339 359 499 506 507 518 0
1 642 756 769 772 781 802 825 872 992 0
1  0
1 73 132 154 172 177 219 238 244 400 469 520 0
1 575 691 693 753 792 807 808 914 0
1  0
1 77 92 125 293 351 372 381 388 498 499 581 0
1 702 728 771 882 0
1  0
1 204 225 243 277 351 542 704 722 850 903 979 0
1  0
1  0
1 174 185 208 272 352 376 455 470 535 766 788 0
1 836 847 930 938 980 0
1  0
1 179 199 237 274 281 296 302 309 321 322 333 0
1 424 493 515 567 683 685 763 769 799 818 923 0
1 951 972 979 994 0
